<number of tasks>
50

<cycle time>
1000

<order strength>
0.901


<task times>
1 432
2 490
3 514
4 531
5 394
6 428
7 466
8 650
9 506
10 474
11 482
12 423
13 754
14 753
15 496
16 663
17 284
18 451
19 593
20 716
21 606
22 377
23 470
24 797
25 371
26 476
27 557
28 445
29 569
30 402
31 339
32 431
33 501
34 450
35 595
36 588
37 494
38 613
39 515
40 527
41 444
42 800
43 463
44 416
45 420
46 675
47 524
48 483
49 311
50 450

<precedence relations>
1,4
1,6
2,3
2,4
2,5
3,6
3,7
3,8
4,7
4,8
5,6
5,7
5,8
6,9
6,10
6,11
7,9
7,11
8,9
8,10
8,11
9,12
9,13
10,12
10,13
11,12
11,13
12,14
12,15
13,14
13,15
14,16
14,17
14,18
14,19
15,16
15,17
15,18
15,19
16,20
16,21
17,20
17,21
18,20
18,21
19,20
19,21
20,22
20,23
20,24
20,25
21,25
21,30
22,26
22,31
23,27
23,29
24,26
24,27
24,28
25,26
25,31
26,29
26,35
27,30
28,30
29,33
29,34
30,31
30,32
31,33
31,34
31,35
32,33
32,34
32,35
33,36
34,36
35,36
36,37
36,38
36,39
36,40
36,41
38,43
38,50
39,42
39,44
40,44
42,45
43,46
44,46
45,47
45,50
46,48
46,49

<end>
